knapsack/knapsack.lp
\* Problem: knapsack *\

Maximize
 obj: + 12 x(1) + 15 x(2) + 5 x(3) + 16 x(4) + 17 x(5)

Subject To
 capacityConstraint: + 2 x(1) + 6 x(2) + x(3) + 7 x(4) + 8 x(5) <= 20

Bounds
 0 <= x(1) <= 1
 0 <= x(2) <= 1
 0 <= x(3) <= 1
 0 <= x(4) <= 1
 0 <= x(5) <= 1

Generals
 x(1)
 x(2)
 x(3)
 x(4)
 x(5)

End
